; benchmark generated from python API
(set-info :status unknown)
(declare-datatypes ((RealState 0)) (((RMk1 (rval1 Real)) (RMk2 (rval2 Real)))))
 (assert
 (forall ((|v17:0| Real) )(forall ((|v16:1| Real) )(forall ((|v15:2| Real) )(forall ((|v14:3| Real) )(forall ((|v13:4| Real) )(forall ((|v12:5| Real) )(exists ((|v11:6_st| RealState) (val!7104 Real) )(exists ((|v10:7_st| RealState) (val!7105 Real) )(exists ((|v9:8_st| RealState) (val!7106 Real) )(exists ((|v8:9_st| RealState) (val!7107 Real) )(exists ((|v7:10_st| RealState) (val!7108 Real) )(exists ((|v6:11_st| RealState) (val!7109 Real) )(forall ((|v5:12| Real) )(forall ((|v4:13| Real) )(forall ((|v3:14| Real) )(forall ((|v2:15| Real) )(forall ((|v1:16| Real) )(forall ((|v0:17| Real) )(let ((?x1172 (* (- 10.0) |v1:16|)))
 (let (($x962 (<= (+ (+ (+ (* (- 9.0) |v13:4|) ?x1172) ?x1172) (* 18.0 |v12:5|)) 4.0)))
 (and (not (= |v11:6_st| (RMk1 val!7104))) (not (= |v10:7_st| (RMk1 val!7105))) (not (= |v9:8_st| (RMk1 val!7106))) (not (= |v8:9_st| (RMk1 val!7107))) (not (= |v7:10_st| (RMk1 val!7108))) (not (= |v6:11_st| (RMk1 val!7109))) $x962))))
 )
 )
 )
 )
 )
 )
 )
 )
 )
 )
 )
 )
 )
 )
 )
 )
 )
 )
(check-sat)
